p edge 612 1224
e 1 257
e 1 258
e 1 281
e 1 282
e 1 509
e 1 510
e 2 259
e 2 260
e 2 283
e 2 284
e 2 511
e 2 512
e 3 569
e 3 570
e 3 277
e 3 278
e 4 571
e 4 572
e 4 279
e 4 280
e 5 533
e 5 534
e 6 535
e 6 536
e 7 517
e 7 518
e 7 425
e 7 426
e 7 537
e 7 501
e 7 502
e 7 538
e 7 505
e 7 506
e 8 540
e 8 519
e 8 520
e 8 427
e 8 428
e 8 503
e 8 504
e 8 507
e 8 508
e 8 539
e 9 393
e 9 394
e 9 539
e 9 537
e 10 540
e 10 538
e 10 395
e 10 396
e 11 309
e 11 310
e 12 311
e 12 312
e 13 513
e 13 514
e 13 329
e 13 330
e 13 433
e 13 434
e 14 515
e 14 516
e 14 331
e 14 332
e 14 435
e 14 436
e 15 453
e 15 454
e 16 455
e 16 456
e 17 321
e 17 322
e 17 357
e 17 358
e 17 361
e 17 362
e 18 323
e 18 324
e 18 359
e 18 360
e 18 363
e 18 364
e 19 257
e 19 259
e 19 337
e 19 338
e 19 469
e 19 470
e 20 258
e 20 260
e 20 339
e 20 340
e 20 471
e 20 472
e 21 485
e 21 550
e 21 213
e 21 214
e 21 549
e 21 486
e 22 487
e 22 551
e 22 552
e 22 488
e 22 215
e 22 216
e 23 233
e 23 234
e 23 609
e 23 610
e 24 612
e 24 235
e 24 236
e 24 611
e 25 265
e 25 266
e 25 395
e 25 205
e 25 206
e 25 393
e 26 396
e 26 394
e 26 267
e 26 268
e 26 207
e 26 208
e 27 225
e 27 226
e 27 323
e 27 418
e 27 321
e 27 594
e 27 417
e 27 593
e 28 322
e 28 227
e 28 324
e 28 420
e 28 419
e 28 595
e 28 228
e 28 596
e 29 385
e 29 386
e 30 387
e 30 388
e 31 521
e 31 489
e 31 490
e 31 237
e 31 238
e 31 585
e 31 273
e 31 274
e 31 522
e 31 586
e 32 588
e 32 524
e 32 587
e 32 491
e 32 492
e 32 239
e 32 240
e 32 275
e 32 276
e 32 523
e 33 289
e 33 290
e 33 546
e 33 573
e 33 574
e 33 545
e 33 541
e 33 542
e 34 291
e 34 548
e 34 547
e 34 292
e 34 575
e 34 576
e 34 543
e 34 544
e 35 609
e 35 611
e 35 503
e 35 501
e 35 215
e 35 602
e 35 601
e 35 213
e 35 445
e 35 446
e 36 610
e 36 214
e 36 612
e 36 216
e 36 502
e 36 504
e 36 603
e 36 604
e 36 447
e 36 448
e 37 609
e 37 612
e 37 297
e 37 298
e 37 493
e 37 494
e 37 497
e 37 498
e 38 610
e 38 611
e 38 299
e 38 300
e 38 495
e 38 496
e 38 499
e 38 500
e 39 577
e 39 578
e 39 549
e 39 455
e 39 551
e 39 453
e 40 579
e 40 580
e 40 550
e 40 552
e 40 456
e 40 454
e 41 357
e 41 359
e 41 552
e 41 533
e 41 535
e 41 549
e 41 285
e 41 286
e 42 358
e 42 551
e 42 360
e 42 550
e 42 534
e 42 536
e 42 287
e 42 288
e 43 317
e 43 382
e 43 401
e 43 402
e 43 381
e 43 318
e 44 403
e 44 404
e 44 319
e 44 320
e 44 383
e 44 384
e 45 545
e 45 547
e 45 325
e 45 326
e 45 437
e 45 438
e 46 546
e 46 548
e 46 327
e 46 328
e 46 439
e 46 440
e 47 521
e 47 541
e 47 523
e 47 537
e 47 540
e 47 221
e 47 222
e 47 543
e 48 522
e 48 524
e 48 538
e 48 539
e 48 544
e 48 542
e 48 223
e 48 224
e 49 385
e 49 449
e 49 387
e 49 325
e 49 327
e 49 450
e 50 386
e 50 451
e 50 388
e 50 326
e 50 328
e 50 452
e 51 509
e 51 511
e 52 510
e 52 512
e 53 417
e 53 419
e 53 477
e 53 478
e 54 418
e 54 420
e 54 479
e 54 480
e 55 561
e 55 562
e 56 563
e 56 564
e 57 237
e 57 239
e 57 209
e 57 210
e 57 405
e 57 406
e 58 238
e 58 240
e 58 211
e 58 212
e 58 407
e 58 408
e 59 229
e 59 294
e 59 346
e 59 345
e 59 293
e 59 285
e 59 287
e 59 230
e 60 231
e 60 295
e 60 296
e 60 232
e 60 347
e 60 348
e 60 286
e 60 288
e 61 449
e 61 451
e 61 273
e 61 275
e 61 309
e 61 311
e 62 450
e 62 452
e 62 274
e 62 276
e 62 310
e 62 312
e 63 293
e 63 295
e 63 533
e 63 536
e 63 569
e 63 571
e 64 294
e 64 296
e 64 534
e 64 535
e 64 570
e 64 572
e 65 329
e 65 557
e 65 331
e 65 397
e 65 398
e 65 558
e 65 217
e 65 218
e 66 330
e 66 332
e 66 399
e 66 400
e 66 559
e 66 560
e 66 219
e 66 220
e 67 473
e 67 474
e 68 475
e 68 476
e 69 265
e 69 267
e 69 429
e 69 430
e 69 409
e 69 410
e 69 573
e 69 575
e 70 266
e 70 268
e 70 431
e 70 432
e 70 411
e 70 412
e 70 574
e 70 576
e 71 289
e 71 291
e 71 377
e 71 378
e 71 541
e 71 544
e 72 290
e 72 292
e 72 379
e 72 380
e 72 542
e 72 543
e 73 325
e 73 328
e 73 589
e 73 590
e 73 369
e 73 370
e 73 565
e 73 566
e 74 326
e 74 327
e 74 591
e 74 592
e 74 371
e 74 372
e 74 567
e 74 568
e 75 481
e 75 482
e 75 567
e 75 557
e 75 559
e 75 277
e 75 279
e 75 569
e 75 565
e 75 572
e 76 483
e 76 484
e 76 568
e 76 558
e 76 560
e 76 278
e 76 280
e 76 570
e 76 571
e 76 566
e 77 333
e 77 493
e 77 334
e 77 495
e 77 601
e 77 603
e 78 494
e 78 335
e 78 496
e 78 336
e 78 602
e 78 604
e 79 353
e 79 354
e 79 425
e 79 525
e 79 427
e 79 301
e 79 302
e 79 526
e 79 593
e 79 595
e 80 355
e 80 356
e 80 426
e 80 428
e 80 303
e 80 304
e 80 594
e 80 596
e 80 527
e 80 528
e 81 481
e 81 483
e 81 557
e 81 560
e 81 477
e 81 479
e 82 482
e 82 484
e 82 558
e 82 559
e 82 478
e 82 480
e 83 417
e 83 420
e 83 261
e 83 262
e 83 329
e 83 332
e 83 397
e 83 399
e 84 418
e 84 419
e 84 263
e 84 264
e 84 330
e 84 331
e 84 398
e 84 400
e 85 385
e 85 388
e 85 597
e 85 598
e 86 386
e 86 387
e 86 599
e 86 600
e 87 513
e 87 515
e 87 489
e 87 237
e 87 491
e 87 269
e 87 270
e 87 240
e 88 514
e 88 516
e 88 490
e 88 492
e 88 238
e 88 271
e 88 272
e 88 239
e 89 225
e 89 227
e 89 421
e 89 422
e 89 205
e 89 207
e 89 473
e 89 345
e 89 347
e 89 475
e 90 226
e 90 228
e 90 423
e 90 424
e 90 206
e 90 208
e 90 474
e 90 346
e 90 348
e 90 476
e 91 497
e 91 499
e 92 498
e 92 500
e 93 529
e 93 530
e 93 517
e 93 519
e 94 531
e 94 532
e 94 518
e 94 520
e 95 317
e 95 273
e 95 276
e 95 509
e 95 319
e 95 512
e 96 318
e 96 274
e 96 275
e 96 510
e 96 511
e 96 320
e 97 361
e 97 363
e 97 529
e 97 531
e 97 597
e 97 599
e 97 377
e 97 379
e 98 362
e 98 364
e 98 530
e 98 532
e 98 598
e 98 600
e 98 378
e 98 380
e 99 253
e 99 350
e 99 213
e 99 216
e 99 414
e 99 413
e 99 349
e 99 254
e 100 214
e 100 415
e 100 416
e 100 351
e 100 215
e 100 256
e 100 255
e 100 352
e 101 225
e 101 228
e 101 593
e 101 596
e 101 597
e 101 600
e 102 226
e 102 227
e 102 594
e 102 595
e 102 598
e 102 599
e 103 401
e 103 403
e 103 377
e 103 380
e 103 445
e 103 447
e 104 402
e 104 404
e 104 378
e 104 379
e 104 446
e 104 448
e 105 209
e 105 211
e 105 581
e 105 582
e 106 210
e 106 212
e 106 583
e 106 584
e 107 421
e 107 423
e 107 241
e 107 242
e 107 349
e 107 351
e 108 422
e 108 424
e 108 243
e 108 244
e 108 350
e 108 352
e 109 465
e 109 466
e 109 441
e 109 442
e 109 285
e 109 288
e 110 467
e 110 468
e 110 443
e 110 444
e 110 286
e 110 287
e 111 305
e 111 306
e 111 341
e 111 342
e 112 307
e 112 308
e 112 343
e 112 344
e 113 253
e 113 255
e 114 254
e 114 256
e 115 413
e 115 365
e 115 366
e 115 369
e 115 371
e 115 437
e 115 415
e 115 439
e 115 568
e 115 217
e 115 565
e 115 219
e 115 221
e 115 223
e 116 566
e 116 367
e 116 368
e 116 370
e 116 372
e 116 416
e 116 438
e 116 567
e 116 440
e 116 414
e 116 218
e 116 220
e 116 222
e 116 224
e 117 341
e 117 343
e 118 342
e 118 344
e 119 389
e 119 390
e 119 456
e 119 333
e 119 335
e 119 469
e 119 471
e 119 249
e 119 250
e 119 453
e 120 454
e 120 391
e 120 392
e 120 455
e 120 334
e 120 336
e 120 470
e 120 472
e 120 251
e 120 252
e 121 465
e 121 467
e 121 485
e 121 487
e 122 466
e 122 468
e 122 486
e 122 488
e 123 497
e 123 493
e 123 496
e 123 241
e 123 243
e 123 500
e 123 245
e 123 246
e 123 313
e 123 314
e 124 498
e 124 494
e 124 495
e 124 242
e 124 499
e 124 244
e 124 247
e 124 248
e 124 315
e 124 316
e 125 545
e 125 548
e 125 581
e 125 583
e 125 521
e 125 524
e 125 441
e 125 405
e 125 407
e 125 281
e 125 283
e 125 443
e 126 546
e 126 547
e 126 284
e 126 582
e 126 584
e 126 522
e 126 523
e 126 408
e 126 406
e 126 442
e 126 282
e 126 444
e 127 261
e 127 263
e 127 333
e 127 336
e 127 305
e 127 307
e 127 469
e 127 472
e 127 253
e 127 256
e 128 262
e 128 264
e 128 334
e 128 335
e 128 306
e 128 308
e 128 470
e 128 471
e 128 254
e 128 255
e 129 297
e 129 393
e 129 299
e 129 396
e 130 298
e 130 395
e 130 300
e 130 394
e 131 249
e 131 251
e 131 317
e 131 320
e 132 250
e 132 252
e 132 318
e 132 319
e 133 449
e 133 513
e 133 452
e 133 516
e 133 309
e 133 312
e 133 505
e 133 507
e 134 450
e 134 451
e 134 514
e 134 515
e 134 310
e 134 311
e 134 506
e 134 508
e 135 481
e 135 484
e 135 269
e 135 461
e 135 462
e 135 271
e 136 482
e 136 483
e 136 270
e 136 463
e 136 464
e 136 272
e 137 205
e 137 208
e 138 206
e 138 207
e 139 561
e 139 563
e 139 365
e 139 367
e 140 562
e 140 564
e 140 366
e 140 368
e 141 577
e 141 579
e 141 525
e 141 429
e 141 527
e 141 501
e 141 431
e 141 504
e 142 578
e 142 580
e 142 526
e 142 528
e 142 502
e 142 503
e 142 430
e 142 432
e 143 357
e 143 360
e 143 589
e 143 591
e 143 373
e 143 374
e 143 345
e 143 348
e 144 358
e 144 359
e 144 590
e 144 592
e 144 375
e 144 376
e 144 346
e 144 347
e 145 293
e 145 296
e 145 425
e 145 428
e 145 441
e 145 444
e 145 573
e 145 576
e 146 294
e 146 295
e 146 426
e 146 427
e 146 442
e 146 443
e 146 574
e 146 575
e 147 389
e 147 391
e 148 390
e 148 392
e 149 485
e 149 488
e 149 553
e 149 554
e 149 397
e 149 400
e 149 373
e 149 375
e 149 473
e 149 476
e 150 486
e 150 487
e 150 555
e 150 556
e 150 398
e 150 399
e 150 374
e 150 376
e 150 474
e 150 475
e 151 421
e 151 231
e 151 424
e 151 465
e 151 468
e 151 409
e 151 229
e 151 411
e 151 605
e 151 606
e 152 230
e 152 423
e 152 232
e 152 466
e 152 467
e 152 410
e 152 608
e 152 412
e 152 607
e 152 422
e 153 585
e 153 587
e 153 301
e 153 303
e 153 313
e 153 315
e 154 586
e 154 588
e 154 302
e 154 304
e 154 314
e 154 316
e 155 553
e 155 555
e 156 554
e 156 556
e 157 261
e 157 264
e 157 232
e 157 217
e 157 229
e 157 220
e 158 231
e 158 230
e 158 263
e 158 218
e 158 219
e 158 262
e 159 233
e 159 577
e 159 235
e 159 580
e 160 234
e 160 579
e 160 236
e 160 578
e 161 233
e 161 353
e 161 355
e 161 236
e 162 234
e 162 235
e 162 356
e 162 354
e 163 265
e 163 268
e 163 373
e 163 376
e 163 281
e 163 284
e 164 266
e 164 267
e 164 374
e 164 375
e 164 282
e 164 283
e 165 605
e 165 445
e 165 607
e 165 448
e 166 608
e 166 446
e 166 447
e 166 606
e 167 529
e 167 532
e 167 341
e 167 344
e 167 409
e 167 412
e 167 605
e 167 608
e 168 530
e 168 531
e 168 342
e 168 343
e 168 410
e 168 411
e 168 606
e 168 607
e 169 556
e 169 553
e 169 588
e 169 585
e 169 505
e 169 508
e 170 586
e 170 587
e 170 554
e 170 506
e 170 507
e 170 555
e 171 433
e 171 389
e 171 392
e 171 401
e 171 435
e 171 404
e 172 390
e 172 391
e 172 434
e 172 402
e 172 403
e 172 436
e 173 477
e 173 461
e 173 463
e 173 337
e 173 339
e 173 480
e 173 349
e 173 352
e 174 462
e 174 464
e 174 338
e 174 340
e 174 479
e 174 478
e 174 350
e 174 351
e 175 257
e 175 260
e 175 461
e 175 464
e 175 209
e 175 212
e 176 258
e 176 259
e 176 462
e 176 463
e 176 210
e 176 211
e 177 517
e 177 520
e 177 457
e 177 458
e 177 269
e 177 272
e 178 518
e 178 519
e 178 459
e 178 460
e 178 270
e 178 271
e 179 413
e 179 381
e 179 383
e 179 416
e 180 414
e 180 382
e 180 415
e 180 384
e 181 361
e 181 459
e 181 364
e 181 429
e 181 432
e 181 457
e 182 362
e 182 363
e 182 460
e 182 430
e 182 431
e 182 458
e 183 321
e 183 324
e 183 581
e 183 584
e 183 301
e 183 304
e 183 241
e 183 244
e 184 322
e 184 323
e 184 582
e 184 583
e 184 302
e 184 303
e 184 242
e 184 243
e 185 305
e 185 457
e 185 308
e 185 460
e 186 306
e 186 307
e 186 459
e 186 458
e 187 249
e 187 252
e 187 405
e 187 408
e 188 250
e 188 251
e 188 406
e 188 407
e 189 525
e 189 528
e 189 337
e 189 340
e 189 245
e 189 247
e 189 313
e 189 316
e 189 221
e 189 224
e 190 526
e 190 527
e 190 338
e 190 339
e 190 246
e 190 248
e 190 314
e 190 315
e 190 222
e 190 223
e 191 369
e 191 433
e 191 372
e 191 436
e 192 370
e 192 371
e 192 435
e 192 434
e 193 489
e 193 492
e 193 365
e 193 368
e 193 561
e 193 564
e 194 490
e 194 491
e 194 366
e 194 367
e 194 562
e 194 563
e 195 437
e 195 440
e 196 438
e 196 439
e 197 353
e 197 356
e 197 297
e 197 300
e 197 589
e 197 592
e 197 601
e 197 604
e 197 381
e 197 384
e 198 354
e 198 355
e 198 298
e 198 299
e 198 590
e 198 591
e 198 602
e 198 603
e 198 382
e 198 383
e 199 277
e 199 280
e 200 278
e 200 279
e 201 245
e 201 248
e 202 246
e 202 247
e 203 289
e 203 292
e 204 290
e 204 291